NAME : eil46
COMMENT : 46-city problem (From eil51)
TYPE : TSP
DIMENSION : 46
EDGE_WEIGHT_TYPE : EUC_2D
NODE_COORD_SECTION
1 37 52
2 49 49
3 52 64
4 20 26
5 40 30
6 21 47
7 17 63
8 31 62
9 52 33
10 51 21
11 42 41
12 31 32
13 5 25
14 12 42
15 36 16
16 52 41
17 27 23
18 17 33
19 13 13
20 57 58
21 62 42
22 42 57
23 16 57
24 8 52
25 27 68
26 30 48
27 43 67
28 58 48
29 58 27
30 38 46
31 46 10
32 61 33
33 62 63
34 63 69
35 32 22
36 45 35
37 59 15
38 10 17
39 21 10
40 5 64
41 30 15
42 39 10
43 25 32
44 48 28
45 56 37
46 30 40
EOF
